\* Problem: Pers/Machines *\

Maximize
 obj: + 13 x1 + 13 x2 + 13 x3 + 13 x4 + 13 x5 + 13 x6 + 13 x7 + 13 x8
 + 13 x9 + 13 x10 + 13 x11 + 13 x12 + 13 x13 + 13 x14 + 13 x15 + 13 x16
 + 13 x17 + 13 x18 + 13 x19 + 13 x20 + 13 x21 + 13 x22 + 13 x23 + 13 x24
 + 13 x25 + 13 x26 + 13 x27 + 13 x28 + 13 x29 + 13 x30 + 13 x31 + 13 x32
 + 13 x33 + 13 x34 + 13 x35 + 13 x36

Subject To
 persMachine2: + x6 + x5 + x4 + x3 + x2 + x1 = 1
 persMachine3: + x12 + x11 + x10 + x9 + x8 + x7 = 1
 persMachine4: + x18 + x17 + x16 + x15 + x14 + x13 = 1
 persMachine5: + x24 + x23 + x22 + x21 + x20 + x19 = 1
 persMachine6: + x30 + x29 + x28 + x27 + x26 + x25 = 1
 persMachine1: + x36 + x35 + x34 + x33 + x32 + x31 = 1
 machinePers2: + x31 + x25 + x19 + x13 + x7 + x1 = 1
 machinePers3: + x32 + x26 + x20 + x14 + x8 + x2 = 1
 machinePers4: + x33 + x27 + x21 + x15 + x9 + x3 = 1
 machinePers5: + x33 + x28 + x22 + x16 + x10 + x4 = 1
 machinePers6: + x34 + x29 + x23 + x17 + x11 + x5 = 1
 machinePers1: + x1 + x36 + x30 + x24 + x18 + x12 = 1

Bounds
 0 <= x1 <= 1
 0 <= x2 <= 1
 0 <= x3 <= 1
 0 <= x4 <= 1
 0 <= x5 <= 1
 0 <= x6 <= 1
 0 <= x7 <= 1
 0 <= x8 <= 1
 0 <= x9 <= 1
 0 <= x10 <= 1
 0 <= x11 <= 1
 0 <= x12 <= 1
 0 <= x13 <= 1
 0 <= x14 <= 1
 0 <= x15 <= 1
 0 <= x16 <= 1
 0 <= x17 <= 1
 0 <= x18 <= 1
 0 <= x19 <= 1
 0 <= x20 <= 1
 0 <= x21 <= 1
 0 <= x22 <= 1
 0 <= x23 <= 1
 0 <= x24 <= 1
 0 <= x25 <= 1
 0 <= x26 <= 1
 0 <= x27 <= 1
 0 <= x28 <= 1
 0 <= x29 <= 1
 0 <= x30 <= 1
 0 <= x31 <= 1
 0 <= x32 <= 1
 0 <= x33 <= 1
 0 <= x34 <= 1
 0 <= x35 <= 1
 0 <= x36 <= 1

Generals
 x1
 x2
 x3
 x4
 x5
 x6
 x7
 x8
 x9
 x10
 x11
 x12
 x13
 x14
 x15
 x16
 x17
 x18
 x19
 x20
 x21
 x22
 x23
 x24
 x25
 x26
 x27
 x28
 x29
 x30
 x31
 x32
 x33
 x34
 x35
 x36

End
